sat
(:max-memory                   18.62
 :memory                       18.62
 :nlsat-arith-var              3
 :nlsat-atoms                  8
 :nlsat-bool-var               1
 :nlsat-clauses                7
 :nlsat-irrational-assignments 1
 :nlsat-propagations           7
 :nlsat-stages                 4
 :num-allocs                   100173
 :rlimit-count                 4094
 :time                         0.01
 :total-time                   0.01)
